N = 5;
H = 6;
T = 2;

avail = array3d(1..N, 1..H, 1..T, [8, 3, 7, 3, 5, 7, 0, 10, 8, 2, 10, 8, 6, 1, 0, 3, 3, 5, 9, 1, 8, 3, 4, 5, 1, 8, 6, 5, 5, 2, 1, 5, 4, 9, 3, 6, 2, 1, 8, 0, 5, 10, 4, 10, 10, 9, 10, 0, 1, 2, 5, 8, 0, 1, 2, 4, 6, 3, 9, 10]);

r = array2d(1..H, 1..T, [2, 1, 0, 1, 1, 1, 1, 2, 0, 0, 1, 0]);
